Read MPS format model from file dat/rmp/DER_48_16384_48.mps
Reading time = 1.76 seconds
: 16432 rows, 114832 columns, 4994066 nonzeros
Gurobi Optimizer version 9.0.0 build v9.0.0rc2 (linux64)
Optimize a model with 16432 rows, 114832 columns and 4994066 nonzeros
Model fingerprint: 0x001e6993
Coefficient statistics:
  Matrix range     [1e-13, 1e+01]
  Objective range  [3e-01, 1e+03]
  Bounds range     [1e+05, 1e+05]
  RHS range        [1e+00, 1e+00]
Ordering time: 0.02s

Barrier statistics:
 AA' NZ     : 7.482e+05
 Factor NZ  : 9.377e+05 (roughly 60 MBytes of memory)
 Factor Ops : 5.526e+07 (less than 1 second per iteration)
 Threads    : 1

                  Objective                Residual
Iter       Primal          Dual         Primal    Dual     Compl     Time
   0   1.84451007e+09 -1.44150842e+08  9.72e+07 1.16e-02  4.62e+05     1s
   1   2.57110872e+07 -2.05941156e+07  1.16e+06 3.64e-12  5.71e+03     1s
   2   2.48336250e+06 -9.13777937e+06  1.08e+05 3.64e-12  5.97e+02     2s
   3   5.19846173e+04 -5.72079966e+06  1.72e-09 5.46e-12  5.03e+01     2s
   4   4.90654553e+04  3.02245728e+04  3.41e-10 3.64e-12  1.64e-01     2s
   5   4.87432191e+04  4.52049528e+04  4.36e-10 2.73e-12  3.08e-02     2s
   6   4.82767504e+04  4.70938974e+04  4.51e-10 2.73e-12  1.03e-02     3s
   7   4.80600197e+04  4.75637200e+04  7.26e-10 3.64e-12  4.32e-03     3s
   8   4.79342579e+04  4.77005867e+04  4.99e-10 1.82e-12  2.03e-03     3s
   9   4.78614916e+04  4.78052994e+04  9.34e-10 3.64e-12  4.89e-04     4s
  10   4.78405123e+04  4.78216571e+04  1.36e-09 1.82e-12  1.64e-04     4s
  11   4.78367691e+04  4.78278940e+04  1.17e-09 3.64e-12  7.73e-05     5s
  12   4.78349674e+04  4.78294272e+04  1.89e-09 2.73e-12  4.82e-05     5s
  13   4.78340197e+04  4.78306303e+04  1.99e-09 2.73e-12  2.95e-05     5s
  14   4.78334554e+04  4.78311326e+04  2.54e-09 2.73e-12  2.02e-05     6s
  15   4.78332693e+04  4.78314797e+04  1.91e-09 1.82e-12  1.56e-05     6s
  16   4.78331031e+04  4.78317556e+04  2.25e-09 1.82e-12  1.17e-05     6s
  17   4.78330064e+04  4.78319471e+04  2.09e-09 1.82e-12  9.22e-06     6s
  18   4.78328317e+04  4.78321019e+04  3.02e-09 1.82e-12  6.35e-06     7s
  19   4.78328001e+04  4.78322074e+04  2.82e-09 1.82e-12  5.16e-06     7s
  20   4.78327239e+04  4.78322744e+04  1.68e-09 2.22e-12  3.91e-06     7s
  21   4.78326586e+04  4.78323665e+04  2.76e-09 6.23e-12  2.54e-06     7s
  22   4.78325869e+04  4.78324177e+04  7.32e-09 6.04e-12  1.47e-06     8s
  23   4.78325644e+04  4.78324415e+04  7.08e-09 5.77e-12  1.07e-06     8s
  24   4.78325339e+04  4.78324606e+04  1.45e-08 6.34e-12  6.38e-07     8s
  25   4.78325250e+04  4.78324725e+04  8.83e-09 5.48e-12  4.57e-07     9s
  26   4.78325143e+04  4.78324813e+04  2.26e-08 4.91e-12  2.87e-07     9s
  27   4.78325092e+04  4.78324897e+04  1.71e-08 3.43e-12  1.70e-07     9s
  28   4.78325005e+04  4.78324974e+04  1.04e-07 1.82e-12  2.76e-08    10s
  29   4.78324989e+04  4.78324986e+04  7.34e-08 3.64e-12  3.04e-09    10s

Barrier solved model in 29 iterations and 9.87 seconds
Optimal objective 4.78324989e+04

Solve time: 9.880685807
Barrier iterations: 29
